14° run output:
{
    "Function": "kroB500.tsp",
    "Problem dimension": [
        431,
        252,
        20,
        292,
        228,
        290,
        389,
        277,
        217,
        405,
        259,
        275,
        166,
        371,
        382,
        213,
        308,
        209,
        123,
        289,
        47,
        282,
        129,
        109,
        455,
        239,
        313,
        161,
        473,
        25,
        176,
        40,
        51,
        113,
        150,
        441,
        264,
        142,
        146,
        270,
        301,
        219,
        154,
        460,
        235,
        90,
        336,
        138,
        424,
        18,
        229,
        171,
        454,
        207,
        77,
        72,
        0,
        9,
        67,
        83,
        432,
        102,
        87,
        403,
        225,
        261,
        34,
        182,
        139,
        215,
        240,
        365,
        121,
        372,
        323,
        400,
        359,
        457,
        369,
        470,
        258,
        307,
        147,
        273,
        388,
        233,
        187,
        342,
        354,
        471,
        285,
        99,
        172,
        96,
        331,
        266,
        22,
        383,
        321,
        410,
        227,
        241,
        362,
        495,
        237,
        430,
        58,
        360,
        170,
        434,
        381,
        459,
        347,
        127,
        333,
        17,
        356,
        143,
        418,
        222,
        489,
        456,
        358,
        103,
        45,
        157,
        355,
        416,
        325,
        295,
        296,
        226,
        65,
        391,
        163,
        477,
        167,
        269,
        328,
        76,
        300,
        407,
        349,
        420,
        498,
        446,
        75,
        160,
        7,
        97,
        180,
        81,
        91,
        120,
        145,
        6,
        79,
        242,
        149,
        364,
        271,
        494,
        29,
        93,
        267,
        339,
        429,
        256,
        126,
        475,
        162,
        224,
        156,
        443,
        370,
        132,
        118,
        210,
        89,
        445,
        53,
        479,
        480,
        338,
        234,
        346,
        483,
        186,
        245,
        486,
        374,
        100,
        11,
        136,
        27,
        324,
        69,
        68,
        36,
        148,
        462,
        318,
        491,
        200,
        351,
        284,
        135,
        442,
        188,
        476,
        368,
        379,
        243,
        423,
        466,
        440,
        92,
        299,
        57,
        216,
        238,
        12,
        10,
        48,
        37,
        95,
        23,
        191,
        193,
        458,
        71,
        254,
        61,
        399,
        320,
        499,
        70,
        119,
        110,
        398,
        309,
        426,
        468,
        484,
        367,
        401,
        190,
        461,
        201,
        375,
        223,
        59,
        54,
        249,
        428,
        332,
        438,
        274,
        181,
        56,
        39,
        221,
        232,
        317,
        305,
        352,
        244,
        268,
        189,
        312,
        485,
        140,
        469,
        406,
        453,
        15,
        395,
        373,
        450,
        322,
        302,
        488,
        74,
        329,
        196,
        197,
        253,
        105,
        257,
        298,
        208,
        415,
        211,
        112,
        402,
        26,
        366,
        43,
        133,
        60,
        41,
        425,
        85,
        165,
        335,
        203,
        192,
        49,
        390,
        344,
        32,
        294,
        330,
        255,
        205,
        262,
        82,
        64,
        413,
        408,
        319,
        21,
        206,
        184,
        393,
        158,
        175,
        279,
        278,
        474,
        419,
        111,
        272,
        214,
        387,
        66,
        246,
        340,
        212,
        396,
        297,
        101,
        88,
        384,
        202,
        159,
        280,
        412,
        230,
        386,
        283,
        303,
        107,
        153,
        397,
        304,
        311,
        169,
        141,
        84,
        414,
        164,
        490,
        98,
        52,
        444,
        62,
        464,
        437,
        392,
        394,
        231,
        94,
        16,
        337,
        173,
        250,
        472,
        106,
        38,
        376,
        439,
        247,
        260,
        348,
        137,
        220,
        168,
        42,
        288,
        310,
        449,
        128,
        481,
        33,
        130,
        378,
        452,
        78,
        409,
        14,
        404,
        326,
        125,
        86,
        2,
        198,
        353,
        104,
        435,
        28,
        218,
        124,
        50,
        286,
        199,
        451,
        314,
        248,
        178,
        281,
        497,
        447,
        465,
        179,
        361,
        31,
        478,
        291,
        5,
        276,
        204,
        327,
        363,
        422,
        350,
        411,
        13,
        8,
        174,
        467,
        421,
        19,
        46,
        287,
        63,
        263,
        55,
        80,
        115,
        152,
        306,
        177,
        316,
        134,
        35,
        108,
        315,
        482,
        116,
        427,
        144,
        436,
        496,
        334,
        24,
        195,
        293,
        433,
        345,
        341,
        122,
        185,
        73,
        448,
        131,
        4,
        151,
        357,
        493,
        117,
        417,
        236,
        155,
        343,
        1,
        380,
        114,
        265,
        44,
        183,
        487,
        30,
        463,
        492,
        385,
        3,
        377,
        194,
        251
    ],
    "Global Optimum": 0,
    "Algorithm": "Genetic algorithm",
    "Parameters": {
        "population": 30,
        "offspring": 30,
        "mutation probability": 0.002,
        "crossover probability": 0.9
    },
    "Fitness": 640645,
    "Solution": [
        431,
        252,
        20,
        292,
        228,
        290,
        389,
        277,
        217,
        405,
        259,
        275,
        166,
        371,
        382,
        213,
        308,
        209,
        123,
        289,
        47,
        282,
        129,
        109,
        455,
        239,
        313,
        161,
        473,
        25,
        176,
        40,
        51,
        113,
        150,
        441,
        264,
        142,
        146,
        270,
        301,
        219,
        154,
        460,
        235,
        90,
        336,
        138,
        424,
        18,
        229,
        171,
        454,
        207,
        77,
        72,
        0,
        9,
        67,
        83,
        432,
        102,
        87,
        403,
        225,
        261,
        34,
        182,
        139,
        215,
        240,
        365,
        121,
        372,
        323,
        400,
        359,
        457,
        369,
        470,
        258,
        307,
        147,
        273,
        388,
        233,
        187,
        342,
        354,
        471,
        285,
        99,
        172,
        96,
        331,
        266,
        22,
        383,
        321,
        410,
        227,
        241,
        362,
        495,
        237,
        430,
        58,
        360,
        170,
        434,
        381,
        459,
        347,
        127,
        333,
        17,
        356,
        143,
        418,
        222,
        489,
        456,
        358,
        103,
        45,
        157,
        355,
        416,
        325,
        295,
        296,
        226,
        65,
        391,
        163,
        477,
        167,
        269,
        328,
        76,
        300,
        407,
        349,
        420,
        498,
        446,
        75,
        160,
        7,
        97,
        180,
        81,
        91,
        120,
        145,
        6,
        79,
        242,
        149,
        364,
        271,
        494,
        29,
        93,
        267,
        339,
        429,
        256,
        126,
        475,
        162,
        224,
        156,
        443,
        370,
        132,
        118,
        210,
        89,
        445,
        53,
        479,
        480,
        338,
        234,
        346,
        483,
        186,
        245,
        486,
        374,
        100,
        11,
        136,
        27,
        324,
        69,
        68,
        36,
        148,
        462,
        318,
        491,
        200,
        351,
        284,
        135,
        442,
        188,
        476,
        368,
        379,
        243,
        423,
        466,
        440,
        92,
        299,
        57,
        216,
        238,
        12,
        10,
        48,
        37,
        95,
        23,
        191,
        193,
        458,
        71,
        254,
        61,
        399,
        320,
        499,
        70,
        119,
        110,
        398,
        309,
        426,
        468,
        484,
        367,
        401,
        190,
        461,
        201,
        375,
        223,
        59,
        54,
        249,
        428,
        332,
        438,
        274,
        181,
        56,
        39,
        221,
        232,
        317,
        305,
        352,
        244,
        268,
        189,
        312,
        485,
        140,
        469,
        406,
        453,
        15,
        395,
        373,
        450,
        322,
        302,
        488,
        74,
        329,
        196,
        197,
        253,
        105,
        257,
        298,
        208,
        415,
        211,
        112,
        402,
        26,
        366,
        43,
        133,
        60,
        41,
        425,
        85,
        165,
        335,
        203,
        192,
        49,
        390,
        344,
        32,
        294,
        330,
        255,
        205,
        262,
        82,
        64,
        413,
        408,
        319,
        21,
        206,
        184,
        393,
        158,
        175,
        279,
        278,
        474,
        419,
        111,
        272,
        214,
        387,
        66,
        246,
        340,
        212,
        396,
        297,
        101,
        88,
        384,
        202,
        159,
        280,
        412,
        230,
        386,
        283,
        303,
        107,
        153,
        397,
        304,
        311,
        169,
        141,
        84,
        414,
        164,
        490,
        98,
        52,
        444,
        62,
        464,
        437,
        392,
        394,
        231,
        94,
        16,
        337,
        173,
        250,
        472,
        106,
        38,
        376,
        439,
        247,
        260,
        348,
        137,
        220,
        168,
        42,
        288,
        310,
        449,
        128,
        481,
        33,
        130,
        378,
        452,
        78,
        409,
        14,
        404,
        326,
        125,
        86,
        2,
        198,
        353,
        104,
        435,
        28,
        218,
        124,
        50,
        286,
        199,
        451,
        314,
        248,
        178,
        281,
        497,
        447,
        465,
        179,
        361,
        31,
        478,
        291,
        5,
        276,
        204,
        327,
        363,
        422,
        350,
        411,
        13,
        8,
        174,
        467,
        421,
        19,
        46,
        287,
        63,
        263,
        55,
        80,
        115,
        152,
        306,
        177,
        316,
        134,
        35,
        108,
        315,
        482,
        116,
        427,
        144,
        436,
        496,
        334,
        24,
        195,
        293,
        433,
        345,
        341,
        122,
        185,
        73,
        448,
        131,
        4,
        151,
        357,
        493,
        117,
        417,
        236,
        155,
        343,
        1,
        380,
        114,
        265,
        44,
        183,
        487,
        30,
        463,
        492,
        385,
        3,
        377,
        194,
        251
    ],
    "Nb of functions evaluations": 50010,
    "Computational time in seconds": 369.98367738723755,
    "Stopping criterion in evaluations": 50000
}